122     4       
14      16      15      15      
0       0       0       0       0       3       2       3       4       
5       3       0       0       0       3       6       11      73      
2       0       0       3       0       3       8       9       41      
4       0       0       0       4       3       5       17      20      
10      0       0       0       8       3       7       8       16      
3       0       0       0       10      3       10      18      67      
6       0       0       0       5       1       19      
1       0       0       9       0       3       12      15      77      
9       0       10      0       0       2       51      79      
5       0       8       0       0       3       13      42      91      
7       0       0       0       8       1       14      
3       0       0       0       7       3       21      23      82      
6       0       7       0       0       2       24      57      
8       0       0       0       6       3       32      52      78      
7       0       7       0       0       3       25      27      50      
4       0       6       0       0       3       31      53      115     
1       0       3       0       0       2       54      56      
5       0       0       0       9       2       28      95      
8       6       0       0       0       3       23      33      93      
10      0       0       0       8       3       23      25      70      
2       0       6       0       0       3       22      34      117     
7       0       0       0       8       2       55      95      
6       0       1       0       0       1       62      
3       0       0       0       2       1       89      
3       0       9       0       0       3       26      29      44      
1       0       0       0       2       2       35      66      
7       0       8       0       0       3       39      43      99      
2       0       0       0       4       2       39      49      
8       0       0       8       0       3       30      38      46      
4       0       5       0       0       2       102     114     
9       0       0       7       0       3       32      37      59      
1       0       0       1       0       3       47      62      110     
6       0       5       0       0       3       36      40      88      
7       4       0       0       0       2       50      100     
4       0       4       0       0       3       47      72      103     
6       7       0       0       0       2       37      83      
8       0       0       1       0       1       111     
5       0       8       0       0       1       102     
4       0       0       3       0       3       45      48      54      
5       1       0       0       0       3       65      73      107     
3       0       0       3       0       1       75      
1       0       0       2       0       3       68      69      71      
3       8       0       0       0       2       51      58      
8       0       0       0       4       1       96      
5       0       0       0       3       3       52      83      85      
5       4       0       0       0       1       109     
9       0       1       0       0       3       64      88      111     
5       0       0       0       9       2       61      105     
2       0       0       10      0       1       92      
2       0       0       6       0       3       63      108     121     
5       0       1       0       0       3       62      63      97      
2       6       0       0       0       2       89      97      
2       9       0       0       0       1       87      
9       1       0       0       0       1       119     
10      4       0       0       0       2       60      96      
1       3       0       0       0       2       79      81      
7       0       10      0       0       1       80      
5       2       0       0       0       1       110     
10      3       0       0       0       2       81      88      
3       9       0       0       0       1       92      
5       0       0       1       0       2       65      90      
6       6       0       0       0       1       101     
1       0       3       0       0       1       69      
7       0       0       0       10      1       118     
4       0       0       2       0       2       66      84      
9       7       0       0       0       1       106     
9       3       0       0       0       2       77      82      
2       1       0       0       0       1       115     
3       2       0       0       0       2       90      116     
1       0       0       0       2       2       74      93      
5       0       0       0       7       1       85      
6       0       0       1       0       1       82      
6       0       0       0       5       1       116     
7       0       9       0       0       3       76      85      90      
7       0       6       0       0       2       76      79      
10      0       0       9       0       2       86      99      
2       0       7       0       0       1       86      
3       7       0       0       0       2       84      102     
5       0       9       0       0       3       98      101     112     
8       6       0       0       0       2       94      106     
8       0       0       0       6       1       94      
4       0       0       0       6       2       104     107     
10      0       0       5       0       1       84      
3       0       7       0       0       2       104     106     
2       0       0       0       2       2       86      103     
5       5       0       0       0       1       115     
9       0       5       0       0       2       89      116     
10      0       0       7       0       2       97      117     
10      0       0       0       3       2       92      104     
9       0       0       10      0       1       114     
10      0       0       0       10      2       93      103     
1       0       0       0       9       2       98      101     
7       3       0       0       0       1       100     
7       0       0       9       0       2       95      99      
6       9       0       0       0       2       96      113     
1       0       0       7       0       2       109     114     
5       10      0       0       0       1       108     
3       1       0       0       0       1       100     
9       3       0       0       0       1       107     
5       0       10      0       0       1       105     
8       0       0       6       0       1       105     
1       0       0       0       6       1       109     
2       0       9       0       0       1       113     
10      0       0       9       0       1       119     
5       1       0       0       0       1       111     
10      0       0       2       0       1       112     
1       0       0       7       0       2       108     117     
10      8       0       0       0       1       112     
2       0       0       0       10      1       110     
3       5       0       0       0       1       119     
5       5       0       0       0       1       113     
5       0       0       2       0       1       120     
10      0       9       0       0       1       121     
5       5       0       0       0       1       118     
6       0       2       0       0       1       118     
1       0       0       0       4       1       120     
10      0       7       0       0       1       121     
3       9       0       0       0       1       120     
6       5       0       0       0       1       122     
4       0       0       10      0       1       122     
4       6       0       0       0       1       122     
0       0       0       0       0       0       